nTasks=4;
nThreads=9;
nCPUs=3;
nCores=7;
rh=[673.848870157 799.092828538 569.002062382 549.938536109 879.226107749 459.952533791 668.989301301 212.543719065 459.386339502];
rc=[724.803131272 726.491366123 715.541884722];
CK=[
	[1 1 0 0 0 0 0]
	[0 0 1 0 0 0 0]
	[0 0 0 1 1 1 1]
];
TH=[
	[1 1 0 0 0 0 0 0 0]
	[0 0 1 1 1 0 0 0 0]
	[0 0 0 0 0 1 0 0 0]
	[0 0 0 0 0 0 1 1 1]
];
